100
1000
236
234
233
232
232
231
230
230
230
229
228
226
226
225
225
222
222
221
220
220
219
219
217
217
217
215
215
214
214
213
212
211
211
209
208
208
208
208
207
207
206
206
206
205
205
204
204
201
201
201
201
201
200
200
198
197
197
196
195
195
194
194
194
194
194
193
192
192
189
188
188
188
187
187
183
182
181
180
179
177
175
175
174
172
171
171
171
169
169
169
169
169
167
167
165
164
163
163
163
162
